RT is False
Default write of storage_offers_DA.csv just to have a file (but constraint should be inactive)
Reading model...
...model read.
creating competitive generators file...
...competitive generators recorded.
Loading data...
.. day-ahead data read.
Compiling instance...
...instance created.
Creating Offer Mitigation (model will solve as dispatch if TRUE)...
...storage offer mitigation file created
Converting model to MPEC...
...converted
NOTE: initial MIP solve with only storage competitive to get feasible solution
Solving...

Welcome to IBM(R) ILOG(R) CPLEX(R) Interactive Optimizer 12.10.0.0
  with Simplex, Mixed Integer & Barrier Optimizers
5725-A06 5725-A29 5724-Y48 5724-Y49 5724-Y54 5724-Y55 5655-Y21
Copyright IBM Corp. 1988, 2019.  All Rights Reserved.

Type 'help' for a list of available commands.
Type 'help' followed by a command name for more
information on commands.

CPLEX> Logfile 'cplex.log' closed.
Logfile 'C:\Users\wenmi\Desktop\competitiveMPEC\logs\tmpznkyv581.cplex.log' open.
CPLEX> New value for parallel optimization mode: -1
CPLEX> New value for mixed integer optimality gap tolerance: 0.05
CPLEX> New value for deterministic time limit in ticks: 100000
CPLEX> Problem 'C:\Users\wenmi\Desktop\competitiveMPEC\logs\tmp0645ww5u.pyomo.lp' read.
Read time = 0.16 sec. (13.58 ticks)
CPLEX> Problem name         : C:\Users\wenmi\Desktop\competitiveMPEC\logs\tmp0645ww5u.pyomo.lp
Objective sense      : Maximize
Variables            :   53320  [Nneg: 1,  Box: 21805,  Free: 4416,
                                 Binary: 27098]
Objective nonzeros   :    8988
Linear constraints   :  122164  [Less: 40983,  Greater: 58612,  Equal: 22569]
  Nonzeros           :  287241
  RHS nonzeros       :   66941

Variables            : Min LB: -5000.000        Max UB: 1000000.       
Objective nonzeros   : Min   : 0.6000000        Max   : 789.9000       
Linear constraints   :
  Nonzeros           : Min   : 0.6000000        Max   : 1000000.       
  RHS nonzeros       : Min   : 0.6000000        Max   : 1000000.       
CPLEX> Version identifier: 12.10.0.0 | 2019-11-26 | 843d4de2ae
CPXPARAM_Parallel                                -1
CPXPARAM_DetTimeLimit                            100000
CPXPARAM_MIP_Tolerances_MIPGap                   0.050000000000000003
Tried aggregator 3 times.
MIP Presolve eliminated 88383 rows and 19212 columns.
MIP Presolve added 3331 rows and 0 columns.
MIP Presolve modified 24428 coefficients.
Aggregator did 12818 substitutions.
Reduced MIP has 24294 rows, 20708 columns, and 66872 nonzeros.
Reduced MIP has 8176 binaries, 0 generals, 0 SOSs, and 0 indicators.
Presolve time = 0.17 sec. (166.90 ticks)
Probing fixed 417 vars, tightened 5787 bounds.
Probing time = 0.03 sec. (18.20 ticks)
Tried aggregator 2 times.
Detecting symmetries...
MIP Presolve eliminated 929 rows and 836 columns.
MIP Presolve modified 2978 coefficients.
Aggregator did 44 substitutions.
Reduced MIP has 23321 rows, 19828 columns, and 64036 nonzeros.
Reduced MIP has 7759 binaries, 0 generals, 0 SOSs, and 0 indicators.
Presolve time = 0.06 sec. (89.21 ticks)
Probing fixed 0 vars, tightened 254 bounds.
Probing time = 0.08 sec. (22.95 ticks)
Clique table members: 41364.
MIP emphasis: balance optimality and feasibility.
MIP search method: dynamic search.
Parallel mode: opportunistic, using up to 16 threads.
Root relaxation solution time = 0.25 sec. (551.39 ticks)

        Nodes                                         Cuts/
   Node  Left     Objective  IInf  Best Integer    Best Bound    ItCnt     Gap

      0     0     3685.0909    61                   3685.0909     5960         
*     0+    0                         3685.0909     3685.0909             0.00%
      0     0        cutoff           3685.0909     3685.0909     5960    0.00%
Elapsed time = 0.89 sec. (1125.45 ticks, tree = 0.01 MB, solutions = 1)

Root node processing (before b&c):
  Real time             =    0.89 sec. (1127.36 ticks)
Parallel b&c, 16 threads:
  Real time             =    0.00 sec. (0.00 ticks)
  Sync time (average)   =    0.00 sec.
  Wait time (average)   =    0.00 sec.
                          ------------
Total (root+branch&cut) =    0.89 sec. (1127.36 ticks)

Solution pool: 1 solution saved.

MIP - Integer optimal solution:  Objective =  3.6850909407e+03
Solution time =    0.91 sec.  Iterations = 5960  Nodes = 0
Deterministic time = 1127.51 ticks  (1244.49 ticks/sec)

CPLEX> Incumbent solution written to file 'C:\Users\wenmi\Desktop\competitiveMPEC\logs\tmp5t_hbfe1.cplex.sol'.
CPLEX> NOTE: no warmstart specified for MIP iteration, default behavior is true
NOTE: resolving with all competitive generators using storage-only solution to warmstart
Solving...

Welcome to IBM(R) ILOG(R) CPLEX(R) Interactive Optimizer 12.10.0.0
  with Simplex, Mixed Integer & Barrier Optimizers
5725-A06 5725-A29 5724-Y48 5724-Y49 5724-Y54 5724-Y55 5655-Y21
Copyright IBM Corp. 1988, 2019.  All Rights Reserved.

Type 'help' for a list of available commands.
Type 'help' followed by a command name for more
information on commands.

CPLEX> Logfile 'cplex.log' closed.
Logfile 'C:\Users\wenmi\Desktop\competitiveMPEC\logs\tmpv8my7ftu.cplex.log' open.
CPLEX> New value for parallel optimization mode: -1
CPLEX> New value for mixed integer optimality gap tolerance: 0.05
CPLEX> New value for deterministic time limit in ticks: 100000
CPLEX> Problem 'C:\Users\wenmi\Desktop\competitiveMPEC\logs\tmp9wyyhteb.pyomo.lp' read.
Read time = 0.16 sec. (13.60 ticks)
CPLEX> MIP start file 'C:\Users\wenmi\Desktop\competitiveMPEC\logs\tmpqia5gnlh.cplex.mst' read.
CPLEX> Problem name         : C:\Users\wenmi\Desktop\competitiveMPEC\logs\tmp9wyyhteb.pyomo.lp
Objective sense      : Maximize
Variables            :   54040  [Nneg: 1,  Box: 22525,  Free: 4416,
                                 Binary: 27098]
Objective nonzeros   :    9685
Linear constraints   :  122164  [Less: 40983,  Greater: 58612,  Equal: 22569]
  Nonzeros           :  287241
  RHS nonzeros       :   66941

Variables            : Min LB: -5000.000        Max UB: 1000000.       
Objective nonzeros   : Min   : 0.6000000        Max   : 789.9000       
Linear constraints   :
  Nonzeros           : Min   : 0.6000000        Max   : 1000000.       
  RHS nonzeros       : Min   : 0.6000000        Max   : 1000000.       
CPLEX> Version identifier: 12.10.0.0 | 2019-11-26 | 843d4de2ae
CPXPARAM_Parallel                                -1
CPXPARAM_DetTimeLimit                            100000
CPXPARAM_MIP_Tolerances_MIPGap                   0.050000000000000003
1 of 1 MIP starts provided solutions.
MIP start 'm1' defined initial solution with objective 32107.2877.
Tried aggregator 3 times.
MIP Presolve eliminated 88383 rows and 19932 columns.
MIP Presolve added 3331 rows and 0 columns.
MIP Presolve modified 24428 coefficients.
Aggregator did 12818 substitutions.
Reduced MIP has 24294 rows, 20708 columns, and 66872 nonzeros.
Reduced MIP has 8176 binaries, 0 generals, 0 SOSs, and 0 indicators.
Presolve time = 0.16 sec. (167.27 ticks)
Probing fixed 417 vars, tightened 5787 bounds.
Probing time = 0.03 sec. (18.20 ticks)
Tried aggregator 2 times.
Detecting symmetries...
MIP Presolve eliminated 929 rows and 836 columns.
MIP Presolve modified 2978 coefficients.
Aggregator did 44 substitutions.
Reduced MIP has 23321 rows, 19828 columns, and 64036 nonzeros.
Reduced MIP has 7759 binaries, 0 generals, 0 SOSs, and 0 indicators.
Presolve time = 0.06 sec. (89.21 ticks)
Probing fixed 0 vars, tightened 254 bounds.
Probing time = 0.08 sec. (22.95 ticks)
Clique table members: 41364.
MIP emphasis: balance optimality and feasibility.
MIP search method: dynamic search.
Parallel mode: opportunistic, using up to 16 threads.
Root relaxation solution time = 0.22 sec. (556.88 ticks)

        Nodes                                         Cuts/
   Node  Left     Objective  IInf  Best Integer    Best Bound    ItCnt     Gap

*     0+    0                        32107.2877   7.35473e+07              --- 
      0     0    35151.8066    64    32107.2877    35151.8066     5947    9.48%
*     0+    0                        32310.2759    35151.8066             8.79%
      0     0    34538.2353    64    32310.2759      Cuts: 80     6010    6.90%
      0     0    34411.6520    64    32310.2759      Cuts: 31     6038    6.50%
      0     0    34318.8294    64    32310.2759      Cuts: 28     6059    6.22%

Clique cuts applied:  1
Implied bound cuts applied:  10
Flow cuts applied:  27
Mixed integer rounding cuts applied:  29
Lift and project cuts applied:  2
Gomory fractional cuts applied:  12

Root node processing (before b&c):
  Real time             =    1.59 sec. (1766.06 ticks)
Parallel b&c, 16 threads:
  Real time             =    0.00 sec. (0.00 ticks)
  Sync time (average)   =    0.00 sec.
  Wait time (average)   =    0.00 sec.
                          ------------
Total (root+branch&cut) =    1.59 sec. (1766.06 ticks)

Solution pool: 2 solutions saved.

MIP - Integer optimal, tolerance (0.05/1e-06):  Objective =  3.2310275869e+04
Current MIP best bound =  3.3808854857e+04 (gap = 1498.58, 4.64%)
Solution time =    1.61 sec.  Iterations = 6075  Nodes = 0 (1)
Deterministic time = 1766.22 ticks  (1097.03 ticks/sec)

CPLEX> Incumbent solution written to file 'C:\Users\wenmi\Desktop\competitiveMPEC\logs\tmpfju9y_jq.cplex.sol'.
CPLEX> Exporting results... 
